c colouring generated by benchmark framework
p edge 1262 6285
v 1 0
v 2 1
v 3 3
v 4 3
v 5 3
v 6 3
v 7 2
v 8 4
v 9 1
v 10 1
v 11 4
v 12 4
v 13 1
v 14 3
v 15 0
v 16 0
v 17 2
v 18 2
v 19 1
v 20 2
v 21 3
v 22 2
v 23 0
v 24 2
v 25 4
v 26 3
v 27 4
v 28 0
v 29 4
v 30 1
v 31 1
v 32 2
v 33 2
v 34 4
v 35 4
v 36 0
v 37 2
v 38 4
v 39 0
v 40 0
v 41 0
v 42 3
v 43 1
v 44 2
v 45 2
v 46 2
v 47 1
v 48 1
v 49 2
v 50 0
v 51 0
v 52 4
v 53 3
v 54 2
v 55 0
v 56 0
v 57 1
v 58 3
v 59 4
v 60 1
v 61 3
v 62 2
v 63 4
v 64 3
v 65 4
v 66 3
v 67 1
v 68 1
v 69 1
v 70 0
v 71 0
v 72 2
v 73 0
v 74 4
v 75 3
v 76 0
v 77 3
v 78 1
v 79 1
v 80 1
v 81 2
v 82 0
v 83 3
v 84 0
v 85 4
v 86 4
v 87 1
v 88 2
v 89 1
v 90 1
v 91 1
v 92 0
v 93 1
v 94 2
v 95 4
v 96 3
v 97 1
v 98 2
v 99 0
v 100 1
v 101 3
v 102 4
v 103 2
v 104 2
v 105 4
v 106 0
v 107 3
v 108 4
v 109 1
v 110 0
v 111 1
v 112 1
v 113 1
v 114 2
v 115 0
v 116 1
v 117 3
v 118 3
v 119 0
v 120 2
v 121 4
v 122 2
v 123 0
v 124 1
v 125 3
v 126 4
v 127 0
v 128 2
v 129 4
v 130 0
v 131 3
v 132 1
v 133 1
v 134 2
v 135 3
v 136 1
v 137 3
v 138 0
v 139 0
v 140 2
v 141 1
v 142 3
v 143 4
v 144 3
v 145 0
v 146 0
v 147 3
v 148 2
v 149 3
v 150 1
v 151 0
v 152 2
v 153 2
v 154 3
v 155 4
v 156 1
v 157 1
v 158 1
v 159 3
v 160 4
v 161 0
v 162 0
v 163 2
v 164 1
v 165 4
v 166 2
v 167 0
v 168 4
v 169 0
v 170 1
v 171 1
v 172 0
v 173 3
v 174 4
v 175 1
v 176 0
v 177 1
v 178 2
v 179 2
v 180 2
v 181 1
v 182 3
v 183 2
v 184 3
v 185 0
v 186 2
v 187 3
v 188 1
v 189 1
v 190 0
v 191 1
v 192 0
v 193 0
v 194 2
v 195 3
v 196 2
v 197 3
v 198 2
v 199 3
v 200 4
v 201 0
v 202 2
v 203 3
v 204 3
v 205 3
v 206 2
v 207 2
v 208 4
v 209 2
v 210 0
v 211 1
v 212 4
v 213 2
v 214 2
v 215 1
v 216 4
v 217 0
v 218 1
v 219 1
v 220 4
v 221 4
v 222 2
v 223 3
v 224 0
v 225 1
v 226 1
v 227 0
v 228 4
v 229 0
v 230 4
v 231 2
v 232 1
v 233 0
v 234 0
v 235 0
v 236 4
v 237 1
v 238 2
v 239 4
v 240 3
v 241 3
v 242 2
v 243 3
v 244 1
v 245 3
v 246 4
v 247 0
v 248 1
v 249 3
v 250 1
v 251 1
v 252 3
v 253 1
v 254 1
v 255 1
v 256 3
v 257 3
v 258 2
v 259 2
v 260 1
v 261 0
v 262 0
v 263 0
v 264 2
v 265 1
v 266 3
v 267 2
v 268 1
v 269 0
v 270 1
v 271 1
v 272 2
v 273 1
v 274 4
v 275 1
v 276 4
v 277 0
v 278 2
v 279 2
v 280 4
v 281 1
v 282 0
v 283 0
v 284 1
v 285 4
v 286 2
v 287 1
v 288 3
v 289 1
v 290 1
v 291 1
v 292 3
v 293 2
v 294 0
v 295 1
v 296 2
v 297 0
v 298 0
v 299 0
v 300 2
v 301 2
v 302 0
v 303 0
v 304 0
v 305 2
v 306 1
v 307 3
v 308 0
v 309 3
v 310 0
v 311 3
v 312 1
v 313 0
v 314 2
v 315 4
v 316 3
v 317 0
v 318 0
v 319 4
v 320 4
v 321 4
v 322 3
v 323 1
v 324 1
v 325 1
v 326 4
v 327 3
v 328 1
v 329 1
v 330 1
v 331 4
v 332 0
v 333 0
v 334 0
v 335 2
v 336 2
v 337 1
v 338 4
v 339 3
v 340 2
v 341 3
v 342 4
v 343 1
v 344 0
v 345 2
v 346 2
v 347 1
v 348 3
v 349 0
v 350 2
v 351 4
v 352 3
v 353 2
v 354 0
v 355 0
v 356 4
v 357 2
v 358 2
v 359 3
v 360 1
v 361 0
v 362 2
v 363 1
v 364 2
v 365 1
v 366 2
v 367 1
v 368 2
v 369 1
v 370 2
v 371 4
v 372 2
v 373 3
v 374 2
v 375 3
v 376 2
v 377 1
v 378 3
v 379 3
v 380 0
v 381 4
v 382 0
v 383 0
v 384 0
v 385 2
v 386 0
v 387 3
v 388 1
v 389 3
v 390 1
v 391 2
v 392 1
v 393 4
v 394 4
v 395 3
v 396 0
v 397 3
v 398 3
v 399 3
v 400 2
v 401 1
v 402 2
v 403 3
v 404 4
v 405 2
v 406 1
v 407 4
v 408 3
v 409 0
v 410 4
v 411 1
v 412 4
v 413 3
v 414 0
v 415 0
v 416 0
v 417 1
v 418 1
v 419 1
v 420 0
v 421 3
v 422 3
v 423 0
v 424 0
v 425 0
v 426 0
v 427 2
v 428 4
v 429 3
v 430 0
v 431 2
v 432 0
v 433 0
v 434 3
v 435 0
v 436 4
v 437 3
v 438 0
v 439 2
v 440 3
v 441 4
v 442 4
v 443 2
v 444 3
v 445 3
v 446 3
v 447 2
v 448 0
v 449 0
v 450 0
v 451 0
v 452 0
v 453 1
v 454 4
v 455 1
v 456 0
v 457 1
v 458 1
v 459 0
v 460 3
v 461 0
v 462 3
v 463 1
v 464 3
v 465 1
v 466 2
v 467 3
v 468 4
v 469 2
v 470 1
v 471 2
v 472 3
v 473 1
v 474 4
v 475 2
v 476 1
v 477 0
v 478 4
v 479 4
v 480 1
v 481 0
v 482 2
v 483 0
v 484 4
v 485 2
v 486 0
v 487 3
v 488 1
v 489 0
v 490 2
v 491 3
v 492 0
v 493 1
v 494 4
v 495 1
v 496 0
v 497 0
v 498 4
v 499 2
v 500 2
v 501 4
v 502 2
v 503 1
v 504 1
v 505 2
v 506 0
v 507 4
v 508 1
v 509 3
v 510 0
v 511 1
v 512 4
v 513 3
v 514 1
v 515 2
v 516 1
v 517 4
v 518 3
v 519 3
v 520 2
v 521 3
v 522 1
v 523 3
v 524 3
v 525 3
v 526 0
v 527 3
v 528 0
v 529 3
v 530 1
v 531 1
v 532 0
v 533 3
v 534 0
v 535 1
v 536 3
v 537 0
v 538 0
v 539 0
v 540 0
v 541 1
v 542 0
v 543 0
v 544 3
v 545 2
v 546 3
v 547 0
v 548 1
v 549 4
v 550 0
v 551 3
v 552 2
v 553 0
v 554 3
v 555 3
v 556 0
v 557 3
v 558 0
v 559 0
v 560 4
v 561 1
v 562 4
v 563 0
v 564 0
v 565 4
v 566 1
v 567 1
v 568 0
v 569 2
v 570 1
v 571 3
v 572 4
v 573 4
v 574 0
v 575 0
v 576 3
v 577 2
v 578 2
v 579 3
v 580 0
v 581 1
v 582 1
v 583 1
v 584 2
v 585 1
v 586 2
v 587 1
v 588 3
v 589 3
v 590 1
v 591 3
v 592 4
v 593 1
v 594 1
v 595 0
v 596 2
v 597 3
v 598 2
v 599 3
v 600 1
v 601 1
v 602 2
v 603 0
v 604 2
v 605 2
v 606 3
v 607 0
v 608 4
v 609 2
v 610 1
v 611 2
v 612 0
v 613 2
v 614 0
v 615 3
v 616 1
v 617 1
v 618 4
v 619 0
v 620 0
v 621 3
v 622 0
v 623 1
v 624 2
v 625 0
v 626 3
v 627 4
v 628 1
v 629 1
v 630 2
v 631 0
v 632 0
v 633 4
v 634 0
v 635 2
v 636 4
v 637 2
v 638 3
v 639 4
v 640 1
v 641 4
v 642 2
v 643 0
v 644 2
v 645 1
v 646 1
v 647 2
v 648 1
v 649 3
v 650 4
v 651 4
v 652 2
v 653 0
v 654 0
v 655 3
v 656 1
v 657 0
v 658 2
v 659 2
v 660 2
v 661 3
v 662 0
v 663 2
v 664 1
v 665 1
v 666 4
v 667 2
v 668 2
v 669 1
v 670 1
v 671 0
v 672 2
v 673 1
v 674 4
v 675 3
v 676 3
v 677 3
v 678 4
v 679 0
v 680 4
v 681 0
v 682 0
v 683 1
v 684 2
v 685 2
v 686 1
v 687 3
v 688 1
v 689 0
v 690 1
v 691 0
v 692 3
v 693 1
v 694 2
v 695 2
v 696 0
v 697 0
v 698 0
v 699 1
v 700 1
v 701 4
v 702 0
v 703 3
v 704 2
v 705 3
v 706 4
v 707 1
v 708 0
v 709 1
v 710 1
v 711 3
v 712 2
v 713 1
v 714 0
v 715 2
v 716 0
v 717 0
v 718 2
v 719 1
v 720 0
v 721 2
v 722 2
v 723 4
v 724 0
v 725 1
v 726 2
v 727 3
v 728 1
v 729 2
v 730 1
v 731 2
v 732 2
v 733 2
v 734 1
v 735 1
v 736 4
v 737 1
v 738 3
v 739 0
v 740 1
v 741 3
v 742 2
v 743 4
v 744 2
v 745 3
v 746 0
v 747 2
v 748 3
v 749 0
v 750 2
v 751 2
v 752 0
v 753 0
v 754 2
v 755 3
v 756 3
v 757 2
v 758 2
v 759 0
v 760 0
v 761 1
v 762 2
v 763 4
v 764 0
v 765 4
v 766 0
v 767 3
v 768 0
v 769 3
v 770 0
v 771 0
v 772 1
v 773 1
v 774 0
v 775 3
v 776 0
v 777 3
v 778 1
v 779 0
v 780 0
v 781 1
v 782 0
v 783 1
v 784 2
v 785 2
v 786 2
v 787 3
v 788 4
v 789 2
v 790 0
v 791 0
v 792 0
v 793 4
v 794 2
v 795 2
v 796 0
v 797 0
v 798 2
v 799 2
v 800 4
v 801 3
v 802 2
v 803 4
v 804 0
v 805 0
v 806 4
v 807 0
v 808 0
v 809 1
v 810 3
v 811 2
v 812 3
v 813 3
v 814 3
v 815 4
v 816 3
v 817 1
v 818 0
v 819 3
v 820 2
v 821 2
v 822 0
v 823 1
v 824 1
v 825 0
v 826 3
v 827 0
v 828 3
v 829 1
v 830 1
v 831 4
v 832 3
v 833 2
v 834 2
v 835 2
v 836 1
v 837 2
v 838 0
v 839 4
v 840 1
v 841 1
v 842 4
v 843 0
v 844 1
v 845 0
v 846 0
v 847 3
v 848 3
v 849 1
v 850 4
v 851 0
v 852 2
v 853 0
v 854 1
v 855 1
v 856 2
v 857 1
v 858 1
v 859 0
v 860 4
v 861 1
v 862 1
v 863 4
v 864 1
v 865 1
v 866 2
v 867 1
v 868 0
v 869 4
v 870 0
v 871 4
v 872 1
v 873 0
v 874 1
v 875 3
v 876 4
v 877 2
v 878 1
v 879 3
v 880 1
v 881 2
v 882 1
v 883 4
v 884 1
v 885 3
v 886 1
v 887 3
v 888 1
v 889 4
v 890 3
v 891 4
v 892 2
v 893 2
v 894 3
v 895 4
v 896 3
v 897 0
v 898 1
v 899 0
v 900 4
v 901 2
v 902 3
v 903 3
v 904 4
v 905 3
v 906 2
v 907 4
v 908 2
v 909 3
v 910 1
v 911 0
v 912 0
v 913 3
v 914 1
v 915 0
v 916 1
v 917 2
v 918 1
v 919 0
v 920 1
v 921 0
v 922 1
v 923 0
v 924 4
v 925 0
v 926 2
v 927 0
v 928 3
v 929 0
v 930 4
v 931 4
v 932 1
v 933 0
v 934 1
v 935 0
v 936 0
v 937 0
v 938 2
v 939 1
v 940 2
v 941 0
v 942 1
v 943 4
v 944 4
v 945 0
v 946 0
v 947 3
v 948 1
v 949 1
v 950 1
v 951 0
v 952 0
v 953 0
v 954 3
v 955 2
v 956 1
v 957 0
v 958 0
v 959 4
v 960 3
v 961 3
v 962 3
v 963 0
v 964 4
v 965 0
v 966 1
v 967 2
v 968 2
v 969 1
v 970 0
v 971 2
v 972 3
v 973 4
v 974 3
v 975 0
v 976 0
v 977 1
v 978 1
v 979 0
v 980 1
v 981 1
v 982 2
v 983 0
v 984 3
v 985 1
v 986 1
v 987 2
v 988 3
v 989 3
v 990 2
v 991 0
v 992 2
v 993 1
v 994 4
v 995 2
v 996 2
v 997 3
v 998 2
v 999 2
v 1000 3
v 1001 3
v 1002 2
v 1003 3
v 1004 2
v 1005 2
v 1006 1
v 1007 2
v 1008 2
v 1009 0
v 1010 2
v 1011 4
v 1012 2
v 1013 0
v 1014 4
v 1015 1
v 1016 2
v 1017 4
v 1018 0
v 1019 1
v 1020 1
v 1021 0
v 1022 4
v 1023 4
v 1024 1
v 1025 0
v 1026 3
v 1027 1
v 1028 0
v 1029 1
v 1030 1
v 1031 2
v 1032 1
v 1033 0
v 1034 3
v 1035 3
v 1036 2
v 1037 0
v 1038 3
v 1039 0
v 1040 3
v 1041 2
v 1042 1
v 1043 4
v 1044 0
v 1045 4
v 1046 2
v 1047 1
v 1048 2
v 1049 2
v 1050 1
v 1051 1
v 1052 3
v 1053 2
v 1054 2
v 1055 0
v 1056 3
v 1057 2
v 1058 1
v 1059 0
v 1060 1
v 1061 3
v 1062 0
v 1063 0
v 1064 3
v 1065 3
v 1066 1
v 1067 1
v 1068 2
v 1069 1
v 1070 4
v 1071 0
v 1072 0
v 1073 2
v 1074 0
v 1075 4
v 1076 3
v 1077 2
v 1078 3
v 1079 3
v 1080 3
v 1081 1
v 1082 1
v 1083 1
v 1084 0
v 1085 0
v 1086 2
v 1087 1
v 1088 2
v 1089 3
v 1090 4
v 1091 0
v 1092 1
v 1093 0
v 1094 2
v 1095 1
v 1096 0
v 1097 0
v 1098 4
v 1099 2
v 1100 1
v 1101 2
v 1102 0
v 1103 3
v 1104 4
v 1105 3
v 1106 1
v 1107 1
v 1108 3
v 1109 2
v 1110 1
v 1111 1
v 1112 0
v 1113 2
v 1114 3
v 1115 3
v 1116 4
v 1117 3
v 1118 4
v 1119 1
v 1120 2
v 1121 1
v 1122 1
v 1123 2
v 1124 0
v 1125 0
v 1126 0
v 1127 3
v 1128 2
v 1129 1
v 1130 3
v 1131 2
v 1132 0
v 1133 0
v 1134 3
v 1135 0
v 1136 3
v 1137 3
v 1138 1
v 1139 2
v 1140 3
v 1141 1
v 1142 2
v 1143 4
v 1144 0
v 1145 1
v 1146 2
v 1147 1
v 1148 3
v 1149 1
v 1150 0
v 1151 1
v 1152 0
v 1153 3
v 1154 2
v 1155 0
v 1156 1
v 1157 1
v 1158 4
v 1159 1
v 1160 4
v 1161 1
v 1162 1
v 1163 4
v 1164 3
v 1165 0
v 1166 0
v 1167 2
v 1168 2
v 1169 2
v 1170 4
v 1171 2
v 1172 0
v 1173 0
v 1174 4
v 1175 1
v 1176 3
v 1177 3
v 1178 2
v 1179 0
v 1180 0
v 1181 3
v 1182 2
v 1183 2
v 1184 4
v 1185 1
v 1186 3
v 1187 4
v 1188 1
v 1189 0
v 1190 1
v 1191 4
v 1192 0
v 1193 4
v 1194 0
v 1195 1
v 1196 1
v 1197 4
v 1198 2
v 1199 0
v 1200 3
v 1201 4
v 1202 3
v 1203 3
v 1204 0
v 1205 0
v 1206 1
v 1207 2
v 1208 1
v 1209 0
v 1210 0
v 1211 2
v 1212 2
v 1213 0
v 1214 1
v 1215 3
v 1216 2
v 1217 0
v 1218 1
v 1219 3
v 1220 0
v 1221 0
v 1222 3
v 1223 1
v 1224 4
v 1225 1
v 1226 0
v 1227 4
v 1228 2
v 1229 0
v 1230 1
v 1231 3
v 1232 1
v 1233 2
v 1234 4
v 1235 0
v 1236 2
v 1237 0
v 1238 1
v 1239 2
v 1240 1
v 1241 3
v 1242 1
v 1243 0
v 1244 2
v 1245 2
v 1246 4
v 1247 1
v 1248 1
v 1249 2
v 1250 3
v 1251 0
v 1252 1
v 1253 0
v 1254 2
v 1255 0
v 1256 0
v 1257 4
v 1258 0
v 1259 3
v 1260 0
v 1261 3
v 1262 2
